p edge 50 613
e 1 2
e 1 4
e 1 11
e 1 13
e 1 14
e 1 17
e 1 18
e 1 20
e 1 21
e 1 25
e 1 26
e 1 27
e 1 28
e 1 30
e 1 31
e 1 32
e 1 34
e 1 37
e 1 39
e 1 43
e 1 45
e 1 47
e 1 49
e 2 9
e 2 11
e 2 13
e 2 17
e 2 20
e 2 21
e 2 24
e 2 26
e 2 27
e 2 30
e 2 35
e 2 36
e 2 38
e 2 40
e 2 41
e 2 43
e 2 44
e 2 48
e 2 50
e 3 4
e 3 5
e 3 6
e 3 8
e 3 10
e 3 12
e 3 13
e 3 16
e 3 19
e 3 21
e 3 22
e 3 23
e 3 24
e 3 25
e 3 26
e 3 27
e 3 28
e 3 29
e 3 38
e 3 40
e 3 41
e 3 46
e 3 48
e 4 5
e 4 7
e 4 8
e 4 11
e 4 14
e 4 17
e 4 18
e 4 19
e 4 20
e 4 23
e 4 24
e 4 25
e 4 26
e 4 27
e 4 29
e 4 31
e 4 34
e 4 36
e 4 37
e 4 38
e 4 39
e 4 41
e 4 47
e 4 49
e 4 50
e 5 6
e 5 7
e 5 9
e 5 10
e 5 12
e 5 15
e 5 16
e 5 17
e 5 19
e 5 20
e 5 21
e 5 22
e 5 26
e 5 28
e 5 29
e 5 33
e 5 34
e 5 35
e 5 36
e 5 39
e 5 41
e 5 42
e 5 44
e 5 45
e 5 48
e 6 7
e 6 8
e 6 9
e 6 10
e 6 12
e 6 13
e 6 14
e 6 16
e 6 20
e 6 21
e 6 24
e 6 29
e 6 30
e 6 32
e 6 35
e 6 38
e 6 39
e 6 40
e 6 41
e 6 42
e 6 44
e 6 46
e 6 49
e 6 50
e 7 8
e 7 9
e 7 12
e 7 14
e 7 15
e 7 16
e 7 17
e 7 18
e 7 23
e 7 25
e 7 26
e 7 27
e 7 30
e 7 31
e 7 33
e 7 34
e 7 35
e 7 37
e 7 39
e 7 43
e 7 44
e 7 49
e 7 50
e 8 10
e 8 11
e 8 13
e 8 14
e 8 17
e 8 18
e 8 20
e 8 22
e 8 24
e 8 26
e 8 28
e 8 29
e 8 30
e 8 35
e 8 37
e 8 38
e 8 41
e 8 42
e 8 43
e 8 44
e 8 45
e 8 46
e 9 12
e 9 13
e 9 14
e 9 15
e 9 18
e 9 20
e 9 21
e 9 23
e 9 25
e 9 27
e 9 29
e 9 31
e 9 32
e 9 33
e 9 37
e 9 39
e 9 40
e 9 44
e 9 45
e 9 46
e 9 47
e 9 49
e 9 50
e 10 11
e 10 12
e 10 13
e 10 14
e 10 15
e 10 16
e 10 20
e 10 22
e 10 24
e 10 25
e 10 30
e 10 32
e 10 33
e 10 35
e 10 36
e 10 38
e 10 39
e 10 44
e 10 46
e 10 47
e 10 50
e 11 12
e 11 13
e 11 16
e 11 17
e 11 18
e 11 19
e 11 20
e 11 21
e 11 22
e 11 25
e 11 26
e 11 27
e 11 30
e 11 39
e 11 40
e 11 45
e 11 46
e 11 48
e 12 13
e 12 18
e 12 19
e 12 21
e 12 26
e 12 27
e 12 28
e 12 29
e 12 32
e 12 33
e 12 38
e 12 39
e 12 40
e 12 41
e 12 42
e 12 45
e 13 14
e 13 16
e 13 18
e 13 23
e 13 30
e 13 36
e 13 38
e 13 39
e 13 40
e 13 42
e 13 43
e 13 44
e 13 45
e 13 46
e 13 48
e 13 50
e 14 15
e 14 16
e 14 18
e 14 19
e 14 20
e 14 21
e 14 25
e 14 26
e 14 28
e 14 31
e 14 36
e 14 38
e 14 39
e 14 41
e 14 46
e 14 47
e 14 48
e 15 16
e 15 17
e 15 21
e 15 22
e 15 23
e 15 25
e 15 27
e 15 28
e 15 29
e 15 30
e 15 32
e 15 34
e 15 35
e 15 36
e 15 38
e 15 39
e 15 42
e 15 44
e 15 47
e 15 48
e 16 18
e 16 19
e 16 20
e 16 21
e 16 23
e 16 24
e 16 26
e 16 27
e 16 31
e 16 32
e 16 35
e 16 36
e 16 37
e 16 40
e 16 45
e 16 47
e 16 48
e 17 19
e 17 22
e 17 24
e 17 26
e 17 27
e 17 29
e 17 31
e 17 32
e 17 33
e 17 37
e 17 40
e 17 42
e 17 45
e 17 46
e 17 47
e 17 48
e 18 19
e 18 20
e 18 21
e 18 26
e 18 27
e 18 28
e 18 30
e 18 32
e 18 33
e 18 34
e 18 36
e 18 38
e 18 43
e 19 20
e 19 21
e 19 27
e 19 28
e 19 29
e 19 30
e 19 31
e 19 32
e 19 33
e 19 34
e 19 36
e 19 37
e 19 39
e 19 41
e 19 42
e 19 45
e 19 46
e 19 48
e 19 49
e 20 26
e 20 28
e 20 32
e 20 34
e 20 36
e 20 37
e 20 40
e 20 46
e 20 47
e 21 22
e 21 24
e 21 26
e 21 27
e 21 30
e 21 33
e 21 34
e 21 38
e 21 40
e 21 42
e 21 43
e 21 45
e 22 23
e 22 24
e 22 25
e 22 28
e 22 29
e 22 30
e 22 33
e 22 34
e 22 37
e 22 39
e 22 41
e 22 43
e 22 44
e 22 46
e 22 50
e 23 24
e 23 25
e 23 27
e 23 28
e 23 32
e 23 35
e 23 36
e 23 39
e 23 41
e 23 42
e 23 44
e 24 26
e 24 27
e 24 28
e 24 30
e 24 31
e 24 32
e 24 33
e 24 34
e 24 36
e 24 38
e 24 39
e 24 40
e 24 43
e 24 44
e 24 45
e 24 47
e 24 49
e 25 26
e 25 27
e 25 28
e 25 30
e 25 31
e 25 32
e 25 33
e 25 34
e 25 36
e 25 38
e 25 39
e 25 40
e 25 41
e 25 42
e 25 43
e 25 46
e 25 48
e 25 49
e 26 28
e 26 29
e 26 31
e 26 34
e 26 37
e 26 38
e 26 39
e 26 43
e 26 44
e 26 49
e 26 50
e 27 28
e 27 33
e 27 34
e 27 37
e 27 38
e 27 39
e 27 40
e 27 41
e 27 42
e 27 43
e 27 45
e 27 46
e 27 48
e 27 50
e 28 29
e 28 31
e 28 32
e 28 33
e 28 35
e 28 36
e 28 37
e 28 39
e 28 41
e 28 42
e 28 45
e 28 46
e 28 47
e 29 32
e 29 33
e 29 34
e 29 38
e 29 40
e 29 41
e 29 43
e 29 46
e 29 47
e 29 49
e 29 50
e 30 31
e 30 32
e 30 33
e 30 37
e 30 39
e 30 42
e 30 43
e 30 47
e 30 48
e 30 50
e 31 33
e 31 35
e 31 37
e 31 38
e 31 44
e 31 47
e 31 50
e 32 33
e 32 34
e 32 35
e 32 36
e 32 39
e 32 42
e 32 43
e 32 44
e 32 49
e 32 50
e 33 35
e 33 36
e 33 39
e 33 40
e 33 42
e 33 45
e 33 46
e 33 47
e 33 48
e 33 50
e 34 35
e 34 36
e 34 37
e 34 38
e 34 39
e 34 40
e 34 44
e 34 46
e 34 48
e 35 38
e 35 39
e 35 40
e 35 41
e 35 42
e 35 45
e 35 47
e 35 48
e 35 50
e 36 39
e 36 41
e 36 43
e 36 44
e 36 45
e 36 46
e 36 48
e 37 41
e 37 43
e 37 44
e 37 46
e 37 48
e 37 50
e 38 41
e 38 42
e 38 43
e 38 44
e 38 45
e 38 47
e 38 48
e 38 49
e 38 50
e 39 41
e 39 43
e 39 44
e 40 45
e 40 47
e 40 49
e 41 46
e 41 47
e 42 43
e 42 44
e 42 45
e 42 46
e 42 47
e 42 48
e 43 46
e 43 47
e 43 50
e 44 45
e 45 46
e 45 47
e 45 50
e 46 48
e 47 49
e 48 49
e 48 50
